============================[ Problem Statistics ]=============================|                                                                             ||  Number of variables:          4242                                         ||  Number of clauses:            9776                                         ||  Parse time:                   0.18 s                                       ||                                                                             |============================[ Search Statistics ]==============================| Conflicts |          ORIGINAL         |          LEARNT          | Progress ||           |    Vars  Clauses Literals |    Limit  Clauses Lit/Cl |          |===============================================================================|       100 |    1591     5981   263172 |     2193      100     53 | 62.501 % |===============================================================================restarts              : 2conflicts             : 106            (346 /sec)decisions             : 278            (0.00 % random) (908 /sec)propagations          : 9861           (32225 /sec)conflict literals     : 5799           (95.90 % deleted)CPU time              : 0.306 sSATISFIABLE